(set-logic ALL)
(declare-fun var0 () String)
(assert (str.in_re var0 (re.++ (re.union (re.union (str.to_re "00") (str.to_re "11")) (re.union (str.to_re "2") (str.to_re "333"))) (re.++ (re.union (re.* (str.to_re "444")) (re.* (str.to_re "5"))) (re.++ (re.+ (re.* (str.to_re "6"))) (re.++ (re.* (re.+ (str.to_re "777"))) (re.++ (re.* (re.* (str.to_re "88"))) (re.++ (re.+ (re.union (str.to_re "99") (str.to_re "aa"))) (re.++ (re.+ (re.* (str.to_re "bb"))) (re.++ (re.+ (re.+ (str.to_re "ccc"))) (re.++ (re.+ (re.union (str.to_re "ddd") (str.to_re "e"))) (re.++ (re.* (re.union (str.to_re "fff") (str.to_re "g"))) (re.++ (re.+ (re.* (str.to_re "hhh"))) (re.++ (re.* (re.union (str.to_re "i") (str.to_re "jj"))) (re.++ (re.+ (re.union (str.to_re "kk") (str.to_re "ll"))) (re.++ (re.union (re.* (str.to_re "mmm")) (re.* (str.to_re "n"))) (re.++ (re.+ (re.* (str.to_re "o"))) (re.++ (re.union (re.* (str.to_re "ppp")) (re.* (str.to_re "qqq"))) (re.++ (re.* (re.union (str.to_re "rr") (str.to_re "s"))) (re.++ (re.+ (re.+ (str.to_re "ttt"))) (re.++ (re.+ (re.* (str.to_re "uuu"))) (re.++ (re.union (re.+ (str.to_re "vvv")) (re.+ (str.to_re "w"))) (re.++ (re.union (re.* (str.to_re "xxx")) (re.* (str.to_re "y"))) (re.++ (re.+ (re.+ (str.to_re "zz"))) (re.++ (re.+ (re.union (str.to_re "AAA") (str.to_re "BB"))) (re.++ (re.union (re.union (str.to_re "CC") (str.to_re "DD")) (re.union (str.to_re "EEE") (str.to_re "F"))) (re.++ (re.+ (re.+ (str.to_re "GGG"))) (re.++ (re.* (re.union (str.to_re "HH") (str.to_re "II"))) (re.++ (re.+ (re.* (str.to_re "JJ"))) (re.++ (re.union (re.+ (str.to_re "KKK")) (re.+ (str.to_re "L"))) (re.++ (re.union (re.+ (str.to_re "M")) (re.+ (str.to_re "NNN"))) (re.++ (re.union (re.+ (str.to_re "O")) (re.+ (str.to_re "PPP"))) (re.++ (re.+ (re.union (str.to_re "QQ") (str.to_re "RRR"))) (re.++ (re.* (re.+ (str.to_re "S"))) (re.++ (re.union (re.+ (str.to_re "TT")) (re.+ (str.to_re "UUU"))) (re.++ (re.* (re.* (str.to_re "VV"))) (re.++ (re.+ (re.* (str.to_re "W"))) (re.++ (re.union (re.+ (str.to_re "X")) (re.+ (str.to_re "Y"))) (re.++ (re.* (re.* (str.to_re "ZZZ"))) (re.++ (re.* (re.union (str.to_re "!!") (str.to_re """"""""))) (re.++ (re.+ (re.union (str.to_re "###") (str.to_re "$$$"))) (re.++ (re.union (re.* (str.to_re "%%")) (re.* (str.to_re "&"))) (re.++ (re.union (re.+ (str.to_re "'")) (re.+ (str.to_re "((("))) (re.++ (re.union (re.* (str.to_re ")")) (re.* (str.to_re "*"))) (re.++ (re.* (re.+ (str.to_re "+++"))) (re.++ (re.+ (re.+ (str.to_re ",,,"))) (re.++ (re.+ (re.* (str.to_re "---"))) (re.++ (re.union (re.+ (str.to_re "..")) (re.+ (str.to_re "/"))) (re.++ (re.union (re.+ (str.to_re ":::")) (re.+ (str.to_re ";"))) (re.++ (re.union (re.+ (str.to_re "<")) (re.+ (str.to_re "==="))) (re.++ (re.union (re.union (str.to_re ">") (str.to_re "?")) (re.union (str.to_re "@") (str.to_re "["))) (re.++ (re.union (re.union (str.to_re "\\") (str.to_re "]")) (re.union (str.to_re "^") (str.to_re "__"))) (re.++ (re.+ (re.union (str.to_re "```") (str.to_re "{{{"))) (re.++ (re.union (re.union (str.to_re "|||") (str.to_re "}}}")) (re.union (str.to_re "~~~") (str.to_re "000"))) (re.++ (re.* (re.union (str.to_re "111") (str.to_re "22"))) (re.++ (re.* (re.union (str.to_re "33") (str.to_re "444"))) (re.++ (re.* (re.* (str.to_re "555"))) (re.++ (re.union (re.+ (str.to_re "666")) (re.+ (str.to_re "77"))) (re.++ (re.union (re.+ (str.to_re "8")) (re.+ (str.to_re "99"))) (re.++ (re.* (re.union (str.to_re "a") (str.to_re "bb"))) (re.++ (re.* (re.+ (str.to_re "c"))) (re.++ (re.union (re.* (str.to_re "d")) (re.* (str.to_re "e"))) (re.++ (re.union (re.union (str.to_re "ff") (str.to_re "gg")) (re.union (str.to_re "hhh") (str.to_re "ii"))) (re.++ (re.union (re.* (str.to_re "jjj")) (re.* (str.to_re "kkk"))) (re.++ (re.union (re.* (str.to_re "ll")) (re.* (str.to_re "m"))) (re.++ (re.union (re.union (str.to_re "nn") (str.to_re "o")) (re.union (str.to_re "p") (str.to_re "q"))) (re.++ (re.* (re.* (str.to_re "rr"))) (re.++ (re.union (re.+ (str.to_re "ss")) (re.+ (str.to_re "t"))) (re.++ (re.+ (re.union (str.to_re "uuu") (str.to_re "v"))) (re.++ (re.union (re.* (str.to_re "www")) (re.* (str.to_re "xx"))) (re.++ (re.* (re.+ (str.to_re "y"))) (re.++ (re.union (re.* (str.to_re "z")) (re.* (str.to_re "A"))) (re.++ (re.* (re.+ (str.to_re "B"))) (re.++ (re.union (re.+ (str.to_re "CC")) (re.+ (str.to_re "D"))) (re.++ (re.+ (re.union (str.to_re "E") (str.to_re "F"))) (re.++ (re.+ (re.+ (str.to_re "G"))) (re.++ (re.* (re.union (str.to_re "HHH") (str.to_re "II"))) (re.++ (re.+ (re.union (str.to_re "JJ") (str.to_re "KK"))) (re.++ (re.+ (re.+ (str.to_re "LL"))) (re.++ (re.union (re.* (str.to_re "M")) (re.* (str.to_re "N"))) (re.++ (re.+ (re.* (str.to_re "OOO"))) (re.++ (re.+ (re.+ (str.to_re "PPP"))) (re.++ (re.+ (re.+ (str.to_re "QQ"))) (re.++ (re.union (re.union (str.to_re "R") (str.to_re "S")) (re.union (str.to_re "T") (str.to_re "UU"))) (re.++ (re.+ (re.+ (str.to_re "V"))) (re.++ (re.* (re.union (str.to_re "WWW") (str.to_re "X"))) (re.++ (re.+ (re.union (str.to_re "YY") (str.to_re "ZZZ"))) (re.++ (re.* (re.union (str.to_re "!!") (str.to_re """"))) (re.++ (re.union (re.union (str.to_re "##") (str.to_re "$")) (re.union (str.to_re "%") (str.to_re "&&"))) (re.++ (re.+ (re.union (str.to_re "'") (str.to_re "((("))) (re.++ (re.+ (re.union (str.to_re ")))") (str.to_re "*"))) (re.++ (re.+ (re.* (str.to_re "++"))) (re.++ (re.+ (re.union (str.to_re ",,,") (str.to_re "--"))) (re.++ (re.+ (re.union (str.to_re "..") (str.to_re "/"))) (re.++ (re.union (re.* (str.to_re ":::")) (re.* (str.to_re ";"))) (re.++ (re.+ (re.union (str.to_re "<<<") (str.to_re "==="))) (re.++ (re.+ (re.union (str.to_re ">") (str.to_re "??"))) (re.++ (re.union (re.+ (str.to_re "@@")) (re.+ (str.to_re "[["))) (re.++ (re.* (re.union (str.to_re "\\") (str.to_re "]"))) (re.++ (re.union (re.+ (str.to_re "^")) (re.+ (str.to_re "___"))) (re.++ (re.* (re.* (str.to_re "```"))) (re.++ (re.union (re.* (str.to_re "{{{")) (re.* (str.to_re "|||"))) (re.++ (re.union (re.+ (str.to_re "}")) (re.+ (str.to_re "~~"))) (re.++ (re.* (re.+ (str.to_re "000"))) (re.++ (re.union (re.* (str.to_re "111")) (re.* (str.to_re "222"))) (re.++ (re.* (re.union (str.to_re "33") (str.to_re "44"))) (re.++ (re.+ (re.* (str.to_re "55"))) (re.++ (re.+ (re.* (str.to_re "66"))) (re.++ (re.+ (re.+ (str.to_re "7"))) (re.++ (re.union (re.+ (str.to_re "888")) (re.+ (str.to_re "9"))) (re.++ (re.+ (re.* (str.to_re "aa"))) (re.++ (re.+ (re.* (str.to_re "bb"))) (re.++ (re.+ (re.* (str.to_re "cc"))) (re.++ (re.* (re.+ (str.to_re "d"))) (re.++ (re.union (re.+ (str.to_re "eee")) (re.+ (str.to_re "f"))) (re.++ (re.union (re.* (str.to_re "gg")) (re.* (str.to_re "hhh"))) (re.++ (re.+ (re.+ (str.to_re "i"))) (re.++ (re.* (re.+ (str.to_re "j"))) (re.++ (re.union (re.+ (str.to_re "kk")) (re.+ (str.to_re "ll"))) (re.++ (re.union (re.+ (str.to_re "m")) (re.+ (str.to_re "nn"))) (re.++ (re.* (re.* (str.to_re "oo"))) (re.++ (re.+ (re.+ (str.to_re "ppp"))) (re.++ (re.+ (re.union (str.to_re "qq") (str.to_re "r"))) (re.++ (re.+ (re.* (str.to_re "ss"))) (re.++ (re.union (re.union (str.to_re "ttt") (str.to_re "u")) (re.union (str.to_re "vvv") (str.to_re "www"))) (re.++ (re.+ (re.+ (str.to_re "x"))) (re.++ (re.union (re.+ (str.to_re "yyy")) (re.+ (str.to_re "z"))) (re.++ (re.+ (re.+ (str.to_re "A"))) (re.++ (re.union (re.+ (str.to_re "BBB")) (re.+ (str.to_re "CC"))) (re.++ (re.* (re.+ (str.to_re "D"))) (re.++ (re.union (re.union (str.to_re "E") (str.to_re "F")) (re.union (str.to_re "GGG") (str.to_re "HHH"))) (re.++ (re.union (re.union (str.to_re "II") (str.to_re "J")) (re.union (str.to_re "KKK") (str.to_re "LL"))) (re.++ (re.* (re.+ (str.to_re "M"))) (re.++ (re.union (re.union (str.to_re "NNN") (str.to_re "O")) (re.union (str.to_re "PP") (str.to_re "Q"))) (re.++ (re.union (re.* (str.to_re "RRR")) (re.* (str.to_re "SS"))) (re.++ (re.union (re.* (str.to_re "TTT")) (re.* (str.to_re "UU"))) (re.++ (re.union (re.+ (str.to_re "V")) (re.+ (str.to_re "WW"))) (re.++ (re.union (re.union (str.to_re "XXX") (str.to_re "YY")) (re.union (str.to_re "ZZZ") (str.to_re "!"))) (re.++ (re.+ (re.+ (str.to_re """"""))) (re.++ (re.* (re.+ (str.to_re "###"))) (re.++ (re.+ (re.+ (str.to_re "$$$"))) (re.++ (re.+ (re.+ (str.to_re "%%%"))) (re.union (re.union (str.to_re "&&&") (str.to_re "'")) (re.union (str.to_re "((") (str.to_re ")")))))))))))))))))))))))))))))))))))))))))))))))))))))))))))))))))))))))))))))))))))))))))))))))))))))))))))))))))))))))))))))))))))))))))))))))))
(check-sat)